477
236
206
254
259
217
259
165
161
141
158
338
211
266
211
138
212
147
255
351
338
365
195
209
269
151
126
213
269
373
357
216
160
234
222
380
212
201
216
167
394
214
119
250
274
262
187
141
266
186
111
180
282
354
422
304
287
180
282
133
212
675
214
214
217
164
248
235
162
152
199
255
139
207
316
198
294
181
330
259
173
171
223
196
173
119
132
276
361
131
284
239
398
124
380
301
354
250
247
292
